\ENCODING=ISO-8859-1
\Problem name: IloCplex

Minimize
 obj: 1000000000000 l0 + l94 + 1000000000000 l1 + l93 + 1000000000000 l2 + l105
      + l225 + 1000000000000 l3 + l104 + 1000000000000 l4 + l122
      + 1000000000000 l5 + l123 + l201 + l208 + 1000000000000 l6 + l95 + l124
      + l180 + 1000000000000 l7 + l106 + l128 + l152 + 1000000000000 l8 + l125
      + l127 + 1000000000000 l9 + l138 + l153 + l194 + 1000000000000 l10 + l129
      + l133 + l198 + l202 + 1000000000000 l11 + l155 + l158
      + 1000000000000 l12 + l134 + l154 + l157 + 1000000000000 l13 + l145
      + l151 + l174 + 1000000000000 l14 + l99 + l100 + l183 + 1000000000000 l15
      + l136 + l144 + l150 + l165 + l218 + 1000000000000 l16 + l142 + l143
      + l172 + l197 + l223 + 1000000000000 l17 + l130 + l132 + l179 + l181
      + l211 + l212 + l220 + 1000000000000 l18 + l113 + l119 + l121 + l131
      + l140 + l156 + l169 + l173 + l176 + l200 + 1000000000000 l19 + l110
      + l117 + l137 + l149 + l160 + l162 + l182 + l190 + 1000000000000 l20
      + l102 + l103 + l167 + l178 + l203 + 1000000000000 l21 + l91 + l92 + l109
      + l116 + l159 + l187 + l188 + l196 + l205 + l206 + l214
      + 1000000000000 l22 + l87 + l108 + l115 + l177 + l199 + l209 + l222
      + 1000000000000 l23 + l88 + l89 + l90 + l126 + l139 + l164 + l185 + l191
      + 1000000000000 l24 + l84 + l96 + l168 + l184 + l186 + l189 + l215 + l224
      + 1000000000000 l25 + l82 + l83 + l163 + l175 + l193 + 1000000000000 l26
      + l60 + l61 + l97 + l101 + l112 + l141 + l146 + l161 + l170 + l217
      + 1000000000000 l27 + l59 + l147 + l148 + l171 + l195 + l210 + l216
      + l221 + 1000000000000 l28 + l79 + l80 + l81 + l107 + l114
      + 1000000000000 l29 + l70 + l85 + l86 + 1000000000000 l30 + l73 + l77
      + l98 + 1000000000000 l31 + l74 + 1000000000000 l32 + l71 + l75 + l78
      + l118 + l135 + l166 + l192 + l204 + l207 + l219 + 1000000000000 l33
      + l63 + 1000000000000 l34 + l69 + l76 + l120 + 1000000000000 l35 + l72
      + l111 + l213 + 1000000000000 l36 + l66 + l67 + l68 + 1000000000000 l37
      + l56 + l57 + l64 + 1000000000000 l38 + l62 + 1000000000000 l39
      + 1000000000000 l40 + l65 + 1000000000000 l41 + l51 + l52 + l53 + l54
      + l55 + l58 + 1000000000000 l42 + l50 + 1000000000000 l43
      + 1000000000000 l44 + 1000000000000 l45 + 1000000000000 l46
      + 1000000000000 l47 + 1000000000000 l48 + 1000000000000 l49
Subject To
 c1:  l0 + l94  = 1
 c2:  l1 + l93  = 1
 c3:  l2 + l105 + l225  = 1
 c4:  l3 + l104  = 1
 c5:  l4 + l122  = 1
 c6:  l5 + l123 + l201 + l208  = 1
 c7:  l6 + l95 + l124 + l180  = 1
 c8:  l7 + l106 + l128 + l152  = 1
 c9:  l8 + l125 + l127  = 1
 c10: l9 + l138 + l153 + l194  = 1
 c11: l10 + l129 + l133 + l198 + l202  = 1
 c12: l11 + l155 + l158  = 1
 c13: l12 + l134 + l154 + l157  = 1
 c14: l13 + l145 + l151 + l174  = 1
 c15: l14 + l99 + l100 + l183  = 1
 c16: l15 + l136 + l144 + l150 + l165 + l218  = 1
 c17: l16 + l142 + l143 + l172 + l197 + l223  = 1
 c18: l17 + l130 + l132 + l179 + l181 + l211 + l212 + l220  = 1
 c19: l18 + l113 + l119 + l121 + l131 + l140 + l156 + l169 + l173 + l176 + l200
       = 1
 c20: l19 + l110 + l117 + l137 + l149 + l160 + l162 + l182 + l190  = 1
 c21: l20 + l102 + l103 + l167 + l178 + l203  = 1
 c22: l21 + l91 + l92 + l109 + l116 + l159 + l187 + l188 + l196 + l205 + l206
      + l214  = 1
 c23: l91 + l22 + l87 + l108 + l115 + l177 + l199 + l209 + l222  = 1
 c24: l203 + l196 + l199 + l23 + l88 + l89 + l90 + l126 + l139 + l164 + l185
      + l191  = 1
 c25: l190 + l102 + l188 + l87 + l185 + l24 + l84 + l96 + l168 + l184 + l186
      + l189 + l215 + l224  = 1
 c26: l162 + l103 + l84 + l25 + l82 + l83 + l163 + l175 + l193  = 1
 c27: l182 + l83 + l26 + l60 + l61 + l97 + l101 + l112 + l141 + l146 + l161
      + l170 + l217  = 1
 c28: l149 + l88 + l61 + l161 + l27 + l59 + l147 + l148 + l171 + l195 + l210
      + l216 + l221  = 1
 c29: l142 + l220 + l200 + l92 + l224 + l82 + l217 + l28 + l79 + l80 + l81
      + l107 + l114  = 1
 c30: l165 + l130 + l156 + l89 + l148 + l79 + l80 + l29 + l70 + l85 + l86  = 1
 c31: l100 + l186 + l163 + l60 + l210 + l30 + l73 + l77 + l98  = 1
 c32: l99 + l218 + l197 + l211 + l164 + l215 + l60 + l210 + l216 + l85 + l98
      + l31 + l74  = 1
 c33: l183 + l136 + l172 + l179 + l176 + l110 + l178 + l205 + l177 + l168
      + l175 + l193 + l170 + l171 + l221 + l81 + l77 + l74 + l32 + l71 + l75
      + l78 + l118 + l135 + l166 + l192 + l204 + l207 + l219  = 1
 c34: l145 + l144 + l113 + l139 + l184 + l175 + l101 + l141 + l59 + l78 + l33
      + l63  = 1
 c35: l174 + l132 + l181 + l116 + l206 + l115 + l209 + l90 + l191 + l184 + l193
      + l112 + l146 + l59 + l171 + l192 + l204 + l207 + l34 + l69 + l76 + l120
       = 1
 c36: l167 + l159 + l126 + l168 + l141 + l217 + l147 + l216 + l81 + l114 + l70
      + l73 + l69 + l35 + l72 + l111 + l213  = 1
 c37: l157 + l143 + l137 + l214 + l96 + l189 + l82 + l70 + l86 + l135 + l219
      + l69 + l213 + l36 + l66 + l67 + l68  = 1
 c38: l158 + l134 + l119 + l187 + l189 + l80 + l71 + l78 + l118 + l166 + l72
      + l111 + l66 + l67 + l37 + l56 + l57 + l64  = 1
 c39: l155 + l154 + l223 + l131 + l214 + l209 + l164 + l186 + l146 + l195 + l79
      + l114 + l118 + l166 + l207 + l219 + l76 + l120 + l213 + l67 + l68 + l64
      + l38 + l62  = 1
 c40: l121 + l169 + l160 + l177 + l126 + l97 + l101 + l148 + l85 + l98 + l75
      + l166 + l204 + l120 + l111 + l213 + l66 + l64 + l62 + l39  = 1
 c41: l151 + l150 + l212 + l173 + l117 + l160 + l167 + l159 + l206 + l115
      + l222 + l139 + l191 + l215 + l224 + l163 + l97 + l170 + l147 + l221
      + l107 + l86 + l77 + l192 + l204 + l219 + l63 + l72 + l67 + l62 + l40
      + l65  = 1
 c42: l140 + l117 + l109 + l205 + l108 + l222 + l89 + l161 + l195 + l107 + l73
      + l71 + l75 + l135 + l192 + l207 + l63 + l111 + l68 + l56 + l57 + l65
      + l41 + l51 + l52 + l53 + l54 + l55 + l58  = 1
 c43: l212 + l140 + l169 + l173 + l137 + l178 + l116 + l96 + l61 + l114 + l78
      + l135 + l76 + l62 + l51 + l52 + l54 + l55 + l58 + l42 + l50  = 1
 c44: l138 + l129 + l121 + l90 + l84 + l112 + l70 + l68 + l56 + l57 + l65 + l51
      + l52 + l53 + l55 + l58 + l50 + l43  = 1
 c45: l125 + l133 + l109 + l108 + l88 + l112 + l107 + l74 + l71 + l75 + l69
      + l56 + l57 + l65 + l51 + l52 + l53 + l54 + l58 + l50 + l44  = 1
 c46: l106 + l153 + l79 + l86 + l98 + l75 + l63 + l76 + l72 + l66 + l57 + l64
      + l65 + l51 + l52 + l53 + l54 + l55 + l58 + l50 + l45  = 1
 c47: l128 + l127 + l202 + l181 + l113 + l109 + l187 + l108 + l170 + l80 + l81
      + l86 + l73 + l74 + l63 + l76 + l120 + l66 + l56 + l64 + l65 + l51 + l52
      + l53 + l54 + l55 + l58 + l50 + l46  = 1
 c48: l95 + l198 + l92 + l187 + l87 + l83 + l195 + l85 + l73 + l77 + l74 + l71
      + l66 + l56 + l57 + l51 + l52 + l53 + l54 + l55 + l50 + l47  = 1
 c49: l201 + l180 + l152 + l223 + l132 + l179 + l119 + l131 + l176 + l110
      + l187 + l222 + l90 + l96 + l83 + l163 + l97 + l195 + l221 + l107 + l85
      + l77 + l98 + l71 + l63 + l69 + l68 + l56 + l57 + l64 + l51 + l53 + l54
      + l55 + l58 + l50 + l48  = 1
 c50: l225 + l208 + l152 + l153 + l194 + l198 + l218 + l197 + l223 + l130
      + l220 + l121 + l200 + l110 + l92 + l109 + l196 + l108 + l199 + l222
      + l90 + l96 + l215 + l83 + l101 + l195 + l216 + l221 + l107 + l73 + l77
      + l74 + l75 + l63 + l120 + l72 + l213 + l67 + l56 + l57 + l64 + l52 + l53
      + l54 + l55 + l58 + l50 + l49  = 1
Bounds
      l124 = 0
      l180 = 0
      l128 = 0
      l152 = 0
      l127 = 0
      l153 = 0
      l133 = 0
      l198 = 0
      l155 = 0
      l134 = 0
      l154 = 0
      l151 = 0
      l174 = 0
      l99 = 0
      l183 = 0
      l136 = 0
      l144 = 0
      l150 = 0
      l218 = 0
      l197 = 0
      l223 = 0
      l130 = 0
      l132 = 0
      l179 = 0
      l181 = 0
      l212 = 0
      l220 = 0
      l113 = 0
      l119 = 0
      l131 = 0
      l140 = 0
      l156 = 0
      l173 = 0
      l176 = 0
      l200 = 0
      l110 = 0
      l117 = 0
      l137 = 0
      l149 = 0
      l160 = 0
      l182 = 0
      l190 = 0
      l102 = 0
      l103 = 0
      l167 = 0
      l178 = 0
      l91 = 0
      l92 = 0
      l109 = 0
      l187 = 0
      l196 = 0
      l214 = 0
      l87 = 0
      l108 = 0
      l115 = 0
      l177 = 0
      l199 = 0
      l222 = 0
      l88 = 0
      l89 = 0
      l90 = 0
      l126 = 0
      l139 = 0
      l164 = 0
      l185 = 0
      l191 = 0
      l84 = 0
      l184 = 0
      l186 = 0
      l189 = 0
      l215 = 0
      l82 = 0
      l83 = 0
      l163 = 0
      l175 = 0
      l193 = 0
      l60 = 0
      l97 = 0
      l101 = 0
      l112 = 0
      l141 = 0
      l146 = 0
      l59 = 0
      l148 = 0
      l195 = 0
      l210 = 0
      l216 = 0
      l79 = 0
      l80 = 0
      l107 = 0
      l114 = 0
      l70 = 0
      l85 = 0
      l86 = 0
      l73 = 0
      l77 = 0
      l98 = 0
      l74 = 0
      l71 = 0
      l75 = 0
      l78 = 0
      l118 = 0
      l166 = 0
      l204 = 0
      l207 = 0
      l219 = 0
      l63 = 0
      l69 = 0
      l76 = 0
      l120 = 0
      l72 = 0
      l111 = 0
      l213 = 0
      l66 = 0
      l67 = 0
      l68 = 0
      l56 = 0
      l57 = 0
      l64 = 0
      l62 = 0
      l65 = 0
      l51 = 0
      l52 = 0
      l53 = 0
      l54 = 0
      l55 = 0
      l58 = 0
      l50 = 0
End
